(set-logic QF_S)
(declare-fun var_0xINPUT_244317 () String)
(assert (and (not (= var_0xINPUT_244317 "YY8CBEMy6Q")) (= (len var_0xINPUT_244317) 0) (not (= var_0xINPUT_244317 "Example:")) (not (= var_0xINPUT_244317 "YY8CBEMy6Q"))))
(check-sat var_0xINPUT_244317)